
Gurobi 6.5.2 (linux64) logging started Wed Sep 14 14:58:49 2016

Optimize a model with 41 rows, 115 columns and 273 nonzeros
Coefficient statistics:
  Matrix range    [1e+00, 2e+00]
  Objective range [1e+00, 9e+01]
  Bounds range    [1e+00, 1e+00]
  RHS range       [1e+00, 1e+00]
Found heuristic solution: objective 639
Presolve removed 15 rows and 4 columns
Presolve time: 0.00s
Presolved: 26 rows, 111 columns, 224 nonzeros
Variable types: 0 continuous, 111 integer (111 binary)

Root relaxation: objective 2.790000e+02, 25 iterations, 0.00 seconds

    Nodes    |    Current Node    |     Objective Bounds      |     Work
 Expl Unexpl |  Obj  Depth IntInf | Incumbent    BestBd   Gap | It/Node Time

     0     0  279.00000    0   10  639.00000  279.00000  56.3%     -    0s
H    0     0                     554.0000000  279.00000  49.6%     -    0s
     0     0  315.75000    0    9  554.00000  315.75000  43.0%     -    0s
H    0     0                     484.0000000  315.75000  34.8%     -    0s
     0     0  324.66667    0   22  484.00000  324.66667  32.9%     -    0s
H    0     0                     481.0000000  324.66667  32.5%     -    0s
     0     0  325.50000    0    2  481.00000  325.50000  32.3%     -    0s
     0     0  331.58333    0   20  481.00000  331.58333  31.1%     -    0s
     0     0  333.16667    0   32  481.00000  333.16667  30.7%     -    0s
H    0     0                     454.0000000  333.16667  26.6%     -    0s
     0     0  334.28378    0   29  454.00000  334.28378  26.4%     -    0s
H    0     0                     422.0000000  334.28378  20.8%     -    0s
     0     0  335.43243    0   29  422.00000  335.43243  20.5%     -    0s
     0     0  339.84000    0   25  422.00000  339.84000  19.5%     -    0s
     0     0  340.02062    0   26  422.00000  340.02062  19.4%     -    0s
     0     0  340.02062    0   24  422.00000  340.02062  19.4%     -    0s
     0     2  340.02062    0   24  422.00000  340.02062  19.4%     -    0s
*   90    46               8     406.0000000  354.00000  12.8%   2.9    0s
*  119    40              15     381.0000000  354.00000  7.09%   2.8    0s
*  271     0              10     372.0000000  356.00000  4.30%   2.6    0s

Cutting planes:
  Gomory: 6
  Cover: 19
  MIR: 6
  Zero half: 1
  Lazy constraints: 77

Explored 424 nodes (1139 simplex iterations) in 0.05 seconds
Thread count was 8 (of 8 available processors)

Optimal solution found (tolerance 1.00e-04)
Best objective 3.720000000000e+02, best bound 3.720000000000e+02, gap 0.0%
